p edge 76 1122
e 1 2
e 1 3
e 1 4
e 1 5
e 1 6
e 1 7
e 1 8
e 1 9
e 1 10
e 1 11
e 1 12
e 1 13
e 1 14
e 1 15
e 1 16
e 1 17
e 1 18
e 1 19
e 1 20
e 1 21
e 1 22
e 1 23
e 1 24
e 2 3
e 2 4
e 2 5
e 2 6
e 2 7
e 2 8
e 2 9
e 2 10
e 2 11
e 2 12
e 2 13
e 2 14
e 2 15
e 2 16
e 2 17
e 2 18
e 2 19
e 2 20
e 2 21
e 2 22
e 2 23
e 2 24
e 3 4
e 3 5
e 3 6
e 3 7
e 3 8
e 3 9
e 3 10
e 3 11
e 3 12
e 3 13
e 3 14
e 3 15
e 3 16
e 3 17
e 3 18
e 3 19
e 3 20
e 3 21
e 3 22
e 3 23
e 3 24
e 4 5
e 4 6
e 4 7
e 4 8
e 4 9
e 4 10
e 4 11
e 4 12
e 4 13
e 4 14
e 4 15
e 4 16
e 4 17
e 4 18
e 4 19
e 4 20
e 4 21
e 4 22
e 4 23
e 4 24
e 5 6
e 5 7
e 5 8
e 5 9
e 5 10
e 5 11
e 5 12
e 5 13
e 5 14
e 5 15
e 5 16
e 5 25
e 5 26
e 5 27
e 5 28
e 5 29
e 5 30
e 5 31
e 5 32
e 5 33
e 5 34
e 5 35
e 5 36
e 6 7
e 6 8
e 6 9
e 6 10
e 6 11
e 6 12
e 6 13
e 6 14
e 6 15
e 6 16
e 6 25
e 6 26
e 6 27
e 6 28
e 6 29
e 6 30
e 6 31
e 6 32
e 6 33
e 6 34
e 6 35
e 6 36
e 7 8
e 7 9
e 7 10
e 7 11
e 7 12
e 7 13
e 7 14
e 7 15
e 7 16
e 7 25
e 7 26
e 7 27
e 7 28
e 7 29
e 7 30
e 7 31
e 7 32
e 7 33
e 7 34
e 7 35
e 7 36
e 8 9
e 8 10
e 8 11
e 8 12
e 8 13
e 8 14
e 8 15
e 8 16
e 8 25
e 8 26
e 8 27
e 8 28
e 8 29
e 8 30
e 8 31
e 8 32
e 8 33
e 8 34
e 8 35
e 8 36
e 9 10
e 9 11
e 9 12
e 9 13
e 9 14
e 9 15
e 9 16
e 9 17
e 9 18
e 9 19
e 9 20
e 9 21
e 9 22
e 9 23
e 9 24
e 9 25
e 9 26
e 9 27
e 9 28
e 9 29
e 9 30
e 9 31
e 9 32
e 9 37
e 9 38
e 9 39
e 9 40
e 9 41
e 9 42
e 9 43
e 9 44
e 9 45
e 9 46
e 9 47
e 9 48
e 10 11
e 10 12
e 10 13
e 10 14
e 10 15
e 10 16
e 10 17
e 10 18
e 10 19
e 10 20
e 10 21
e 10 22
e 10 23
e 10 24
e 10 25
e 10 26
e 10 27
e 10 28
e 10 29
e 10 30
e 10 31
e 10 32
e 10 37
e 10 38
e 10 39
e 10 40
e 10 41
e 10 42
e 10 43
e 10 44
e 10 45
e 10 46
e 10 47
e 10 48
e 11 12
e 11 13
e 11 14
e 11 15
e 11 16
e 11 17
e 11 18
e 11 19
e 11 20
e 11 21
e 11 22
e 11 23
e 11 24
e 11 25
e 11 26
e 11 27
e 11 28
e 11 29
e 11 30
e 11 31
e 11 32
e 11 37
e 11 38
e 11 39
e 11 40
e 11 41
e 11 42
e 11 43
e 11 44
e 11 45
e 11 46
e 11 47
e 11 48
e 12 13
e 12 14
e 12 15
e 12 16
e 12 17
e 12 18
e 12 19
e 12 20
e 12 21
e 12 22
e 12 23
e 12 24
e 12 25
e 12 26
e 12 27
e 12 28
e 12 29
e 12 30
e 12 31
e 12 32
e 12 37
e 12 38
e 12 39
e 12 40
e 12 41
e 12 42
e 12 43
e 12 44
e 12 45
e 12 46
e 12 47
e 12 48
e 13 14
e 13 15
e 13 16
e 13 21
e 13 22
e 13 23
e 13 24
e 13 29
e 13 30
e 13 31
e 13 32
e 13 33
e 13 34
e 13 35
e 13 36
e 13 41
e 13 42
e 13 43
e 13 44
e 13 45
e 13 46
e 13 47
e 13 48
e 13 49
e 13 50
e 13 51
e 13 52
e 14 15
e 14 16
e 14 21
e 14 22
e 14 23
e 14 24
e 14 29
e 14 30
e 14 31
e 14 32
e 14 33
e 14 34
e 14 35
e 14 36
e 14 41
e 14 42
e 14 43
e 14 44
e 14 45
e 14 46
e 14 47
e 14 48
e 14 49
e 14 50
e 14 51
e 14 52
e 15 16
e 15 21
e 15 22
e 15 23
e 15 24
e 15 29
e 15 30
e 15 31
e 15 32
e 15 33
e 15 34
e 15 35
e 15 36
e 15 41
e 15 42
e 15 43
e 15 44
e 15 45
e 15 46
e 15 47
e 15 48
e 15 49
e 15 50
e 15 51
e 15 52
e 16 21
e 16 22
e 16 23
e 16 24
e 16 29
e 16 30
e 16 31
e 16 32
e 16 33
e 16 34
e 16 35
e 16 36
e 16 41
e 16 42
e 16 43
e 16 44
e 16 45
e 16 46
e 16 47
e 16 48
e 16 49
e 16 50
e 16 51
e 16 52
e 17 18
e 17 19
e 17 20
e 17 21
e 17 22
e 17 23
e 17 24
e 17 25
e 17 26
e 17 27
e 17 28
e 17 37
e 17 38
e 17 39
e 17 40
e 17 41
e 17 42
e 17 43
e 17 44
e 17 53
e 17 54
e 17 55
e 17 56
e 17 57
e 17 58
e 17 59
e 17 60
e 17 61
e 17 62
e 17 63
e 17 64
e 18 19
e 18 20
e 18 21
e 18 22
e 18 23
e 18 24
e 18 25
e 18 26
e 18 27
e 18 28
e 18 37
e 18 38
e 18 39
e 18 40
e 18 41
e 18 42
e 18 43
e 18 44
e 18 53
e 18 54
e 18 55
e 18 56
e 18 57
e 18 58
e 18 59
e 18 60
e 18 61
e 18 62
e 18 63
e 18 64
e 19 20
e 19 21
e 19 22
e 19 23
e 19 24
e 19 25
e 19 26
e 19 27
e 19 28
e 19 37
e 19 38
e 19 39
e 19 40
e 19 41
e 19 42
e 19 43
e 19 44
e 19 53
e 19 54
e 19 55
e 19 56
e 19 57
e 19 58
e 19 59
e 19 60
e 19 61
e 19 62
e 19 63
e 19 64
e 20 21
e 20 22
e 20 23
e 20 24
e 20 25
e 20 26
e 20 27
e 20 28
e 20 37
e 20 38
e 20 39
e 20 40
e 20 41
e 20 42
e 20 43
e 20 44
e 20 53
e 20 54
e 20 55
e 20 56
e 20 57
e 20 58
e 20 59
e 20 60
e 20 61
e 20 62
e 20 63
e 20 64
e 21 22
e 21 23
e 21 24
e 21 29
e 21 30
e 21 31
e 21 32
e 21 41
e 21 42
e 21 43
e 21 44
e 21 45
e 21 46
e 21 47
e 21 48
e 21 57
e 21 58
e 21 59
e 21 60
e 21 61
e 21 62
e 21 63
e 21 64
e 21 65
e 21 66
e 21 67
e 21 68
e 22 23
e 22 24
e 22 29
e 22 30
e 22 31
e 22 32
e 22 41
e 22 42
e 22 43
e 22 44
e 22 45
e 22 46
e 22 47
e 22 48
e 22 57
e 22 58
e 22 59
e 22 60
e 22 61
e 22 62
e 22 63
e 22 64
e 22 65
e 22 66
e 22 67
e 22 68
e 23 24
e 23 29
e 23 30
e 23 31
e 23 32
e 23 41
e 23 42
e 23 43
e 23 44
e 23 45
e 23 46
e 23 47
e 23 48
e 23 57
e 23 58
e 23 59
e 23 60
e 23 61
e 23 62
e 23 63
e 23 64
e 23 65
e 23 66
e 23 67
e 23 68
e 24 29
e 24 30
e 24 31
e 24 32
e 24 41
e 24 42
e 24 43
e 24 44
e 24 45
e 24 46
e 24 47
e 24 48
e 24 57
e 24 58
e 24 59
e 24 60
e 24 61
e 24 62
e 24 63
e 24 64
e 24 65
e 24 66
e 24 67
e 24 68
e 25 26
e 25 27
e 25 28
e 25 29
e 25 30
e 25 31
e 25 32
e 25 37
e 25 38
e 25 39
e 25 40
e 25 41
e 25 42
e 25 43
e 25 44
e 25 73
e 25 74
e 25 75
e 25 76
e 26 27
e 26 28
e 26 29
e 26 30
e 26 31
e 26 32
e 26 37
e 26 38
e 26 39
e 26 40
e 26 41
e 26 42
e 26 43
e 26 44
e 26 73
e 26 74
e 26 75
e 26 76
e 27 28
e 27 29
e 27 30
e 27 31
e 27 32
e 27 37
e 27 38
e 27 39
e 27 40
e 27 41
e 27 42
e 27 43
e 27 44
e 27 73
e 27 74
e 27 75
e 27 76
e 28 29
e 28 30
e 28 31
e 28 32
e 28 37
e 28 38
e 28 39
e 28 40
e 28 41
e 28 42
e 28 43
e 28 44
e 28 73
e 28 74
e 28 75
e 28 76
e 29 30
e 29 31
e 29 32
e 29 33
e 29 34
e 29 35
e 29 36
e 29 41
e 29 42
e 29 43
e 29 44
e 29 45
e 29 46
e 29 47
e 29 48
e 30 31
e 30 32
e 30 33
e 30 34
e 30 35
e 30 36
e 30 41
e 30 42
e 30 43
e 30 44
e 30 45
e 30 46
e 30 47
e 30 48
e 31 32
e 31 33
e 31 34
e 31 35
e 31 36
e 31 41
e 31 42
e 31 43
e 31 44
e 31 45
e 31 46
e 31 47
e 31 48
e 32 33
e 32 34
e 32 35
e 32 36
e 32 41
e 32 42
e 32 43
e 32 44
e 32 45
e 32 46
e 32 47
e 32 48
e 33 34
e 33 35
e 33 36
e 33 45
e 33 46
e 33 47
e 33 48
e 33 49
e 33 50
e 33 51
e 33 52
e 34 35
e 34 36
e 34 45
e 34 46
e 34 47
e 34 48
e 34 49
e 34 50
e 34 51
e 34 52
e 35 36
e 35 45
e 35 46
e 35 47
e 35 48
e 35 49
e 35 50
e 35 51
e 35 52
e 36 45
e 36 46
e 36 47
e 36 48
e 36 49
e 36 50
e 36 51
e 36 52
e 37 38
e 37 39
e 37 40
e 37 41
e 37 42
e 37 43
e 37 44
e 37 53
e 37 54
e 37 55
e 37 56
e 37 57
e 37 58
e 37 59
e 37 60
e 37 73
e 37 74
e 37 75
e 37 76
e 38 39
e 38 40
e 38 41
e 38 42
e 38 43
e 38 44
e 38 53
e 38 54
e 38 55
e 38 56
e 38 57
e 38 58
e 38 59
e 38 60
e 38 73
e 38 74
e 38 75
e 38 76
e 39 40
e 39 41
e 39 42
e 39 43
e 39 44
e 39 53
e 39 54
e 39 55
e 39 56
e 39 57
e 39 58
e 39 59
e 39 60
e 39 73
e 39 74
e 39 75
e 39 76
e 40 41
e 40 42
e 40 43
e 40 44
e 40 53
e 40 54
e 40 55
e 40 56
e 40 57
e 40 58
e 40 59
e 40 60
e 40 73
e 40 74
e 40 75
e 40 76
e 41 42
e 41 43
e 41 44
e 41 45
e 41 46
e 41 47
e 41 48
e 41 57
e 41 58
e 41 59
e 41 60
e 41 61
e 41 62
e 41 63
e 41 64
e 42 43
e 42 44
e 42 45
e 42 46
e 42 47
e 42 48
e 42 57
e 42 58
e 42 59
e 42 60
e 42 61
e 42 62
e 42 63
e 42 64
e 43 44
e 43 45
e 43 46
e 43 47
e 43 48
e 43 57
e 43 58
e 43 59
e 43 60
e 43 61
e 43 62
e 43 63
e 43 64
e 44 45
e 44 46
e 44 47
e 44 48
e 44 57
e 44 58
e 44 59
e 44 60
e 44 61
e 44 62
e 44 63
e 44 64
e 45 46
e 45 47
e 45 48
e 45 49
e 45 50
e 45 51
e 45 52
e 45 61
e 45 62
e 45 63
e 45 64
e 45 65
e 45 66
e 45 67
e 45 68
e 46 47
e 46 48
e 46 49
e 46 50
e 46 51
e 46 52
e 46 61
e 46 62
e 46 63
e 46 64
e 46 65
e 46 66
e 46 67
e 46 68
e 47 48
e 47 49
e 47 50
e 47 51
e 47 52
e 47 61
e 47 62
e 47 63
e 47 64
e 47 65
e 47 66
e 47 67
e 47 68
e 48 49
e 48 50
e 48 51
e 48 52
e 48 61
e 48 62
e 48 63
e 48 64
e 48 65
e 48 66
e 48 67
e 48 68
e 49 50
e 49 51
e 49 52
e 49 65
e 49 66
e 49 67
e 49 68
e 49 69
e 49 70
e 49 71
e 49 72
e 50 51
e 50 52
e 50 65
e 50 66
e 50 67
e 50 68
e 50 69
e 50 70
e 50 71
e 50 72
e 51 52
e 51 65
e 51 66
e 51 67
e 51 68
e 51 69
e 51 70
e 51 71
e 51 72
e 52 65
e 52 66
e 52 67
e 52 68
e 52 69
e 52 70
e 52 71
e 52 72
e 53 54
e 53 55
e 53 56
e 53 57
e 53 58
e 53 59
e 53 60
e 53 73
e 53 74
e 53 75
e 53 76
e 54 55
e 54 56
e 54 57
e 54 58
e 54 59
e 54 60
e 54 73
e 54 74
e 54 75
e 54 76
e 55 56
e 55 57
e 55 58
e 55 59
e 55 60
e 55 73
e 55 74
e 55 75
e 55 76
e 56 57
e 56 58
e 56 59
e 56 60
e 56 73
e 56 74
e 56 75
e 56 76
e 57 58
e 57 59
e 57 60
e 57 61
e 57 62
e 57 63
e 57 64
e 58 59
e 58 60
e 58 61
e 58 62
e 58 63
e 58 64
e 59 60
e 59 61
e 59 62
e 59 63
e 59 64
e 60 61
e 60 62
e 60 63
e 60 64
e 61 62
e 61 63
e 61 64
e 61 65
e 61 66
e 61 67
e 61 68
e 62 63
e 62 64
e 62 65
e 62 66
e 62 67
e 62 68
e 63 64
e 63 65
e 63 66
e 63 67
e 63 68
e 64 65
e 64 66
e 64 67
e 64 68
e 65 66
e 65 67
e 65 68
e 65 69
e 65 70
e 65 71
e 65 72
e 66 67
e 66 68
e 66 69
e 66 70
e 66 71
e 66 72
e 67 68
e 67 69
e 67 70
e 67 71
e 67 72
e 68 69
e 68 70
e 68 71
e 68 72
e 69 70
e 69 71
e 69 72
e 70 71
e 70 72
e 71 72
e 73 74
e 73 75
e 73 76
e 74 75
e 74 76
e 75 76
